NAME          
ROWS
 N  OBJ
 L  c6
 L  c7
 L  c8
 L  c9
 L  c10
 G  c1
 G  c2
 G  c3
 G  c4
 G  c5
COLUMNS
    ss[1]     c1        1
    ss[1]     OBJ       1000
    ss[2]     c2        1
    ss[2]     OBJ       1000
    ss[3]     c3        1
    ss[3]     OBJ       1000
    ss[4]     c4        1
    ss[4]     OBJ       1000
    ss[5]     c5        1
    ss[5]     OBJ       1000
    s[1]      c6        1
    s[1]      OBJ       -1000
    s[2]      c7        1
    s[2]      OBJ       -1000
    s[3]      c8        1
    s[3]      OBJ       -1000
    s[4]      c9        1
    s[4]      OBJ       -1000
    s[5]      c10       1
    s[5]      OBJ       -1000
    MARKER    'MARKER'                 'INTORG'
    x[1]      c6        666
    x[1]      c7        716
    x[1]      c8        923
    x[1]      c9        742
    x[1]      c10       827
    x[1]      c1        556
    x[1]      c2        413
    x[1]      c3        907
    x[1]      c4        547
    x[1]      c5        599
    x[1]      OBJ       -386
    x[2]      c6        688
    x[2]      c7        97
    x[2]      c8        385
    x[2]      c9        496
    x[2]      c10       439
    x[2]      c1        125
    x[2]      c2        794
    x[2]      c3        447
    x[2]      c4        399
    x[2]      c5        63
    x[2]      OBJ       82
    x[3]      c6        983
    x[3]      c7        257
    x[3]      c8        266
    x[3]      c9        589
    x[3]      c10       328
    x[3]      c1        736
    x[3]      c2        494
    x[3]      c3        158
    x[3]      c4        669
    x[3]      c5        627
    x[3]      OBJ       72
    x[4]      c6        479
    x[4]      c7        968
    x[4]      c8        374
    x[4]      c9        804
    x[4]      c10       494
    x[4]      c1        557
    x[4]      c2        821
    x[4]      c3        840
    x[4]      c4        818
    x[4]      c5        495
    x[4]      OBJ       5
    x[5]      c6        117
    x[5]      c7        460
    x[5]      c8        886
    x[5]      c9        302
    x[5]      c10       745
    x[5]      c1        301
    x[5]      c2        348
    x[5]      c3        440
    x[5]      c4        623
    x[5]      c5        55
    x[5]      OBJ       -604
    x[6]      c6        68
    x[6]      c7        815
    x[6]      c8        895
    x[6]      c9        958
    x[6]      c10       386
    x[6]      c1        6
    x[6]      c2        961
    x[6]      c3        413
    x[6]      c4        164
    x[6]      c5        314
    x[6]      OBJ       -367
    x[7]      c6        357
    x[7]      c7        704
    x[7]      c8        107
    x[7]      c9        873
    x[7]      c10       124
    x[7]      c1        111
    x[7]      c2        63
    x[7]      c3        75
    x[7]      c4        859
    x[7]      c5        599
    x[7]      OBJ       -591
    x[8]      c6        972
    x[8]      c7        32
    x[8]      c8        647
    x[8]      c9        201
    x[8]      c10       996
    x[8]      c1        16
    x[8]      c2        962
    x[8]      c3        682
    x[8]      c4        960
    x[8]      c5        374
    x[8]      OBJ       196
    x[9]      c6        505
    x[9]      c7        961
    x[9]      c8        138
    x[9]      c9        818
    x[9]      c10       847
    x[9]      c1        704
    x[9]      c2        799
    x[9]      c3        936
    x[9]      c4        509
    x[9]      c5        472
    x[9]      OBJ       69
    x[10]     c6        865
    x[10]     c7        767
    x[10]     c8        39
    x[10]     c9        391
    x[10]     c10       440
    x[10]     c1        952
    x[10]     c2        242
    x[10]     c3        933
    x[10]     c4        365
    x[10]     c5        554
    x[10]     OBJ       169
    x[11]     c6        36
    x[11]     c7        253
    x[11]     c8        461
    x[11]     c9        491
    x[11]     c10       943
    x[11]     c1        408
    x[11]     c2        352
    x[11]     c3        753
    x[11]     c4        351
    x[11]     c5        946
    x[11]     OBJ       28
    x[12]     c6        603
    x[12]     c7        693
    x[12]     c8        866
    x[12]     c9        166
    x[12]     c10       999
    x[12]     c1        492
    x[12]     c2        337
    x[12]     c3        47
    x[12]     c4        949
    x[12]     c5        583
    x[12]     OBJ       -330
    x[13]     c6        982
    x[13]     c7        737
    x[13]     c8        524
    x[13]     c9        133
    x[13]     c10       181
    x[13]     c1        163
    x[13]     c2        111
    x[13]     c3        488
    x[13]     c4        25
    x[13]     c5        359
    x[13]     OBJ       -637
    x[14]     c6        727
    x[14]     c7        316
    x[14]     c8        500
    x[14]     c9        125
    x[14]     c10       500
    x[14]     c1        938
    x[14]     c2        559
    x[14]     c3        649
    x[14]     c4        197
    x[14]     c5        675
    x[14]     OBJ       -290
    x[15]     c6        396
    x[15]     c7        780
    x[15]     c8        589
    x[15]     c9        858
    x[15]     c10       574
    x[15]     c1        315
    x[15]     c2        889
    x[15]     c3        475
    x[15]     c4        264
    x[15]     c5        87
    x[15]     OBJ       -606
    x[16]     c6        23
    x[16]     c7        233
    x[16]     c8        586
    x[16]     c9        858
    x[16]     c10       355
    x[16]     c1        949
    x[16]     c2        595
    x[16]     c3        88
    x[16]     c4        678
    x[16]     c5        563
    x[16]     OBJ       77
    x[17]     c6        201
    x[17]     c7        190
    x[17]     c8        410
    x[17]     c9        516
    x[17]     c10       934
    x[17]     c1        670
    x[17]     c2        914
    x[17]     c3        464
    x[17]     c4        581
    x[17]     c5        150
    x[17]     OBJ       179
    x[18]     c6        67
    x[18]     c7        414
    x[18]     c8        595
    x[18]     c9        468
    x[18]     c10       472
    x[18]     c1        1000
    x[18]     c2        576
    x[18]     c3        50
    x[18]     c4        500
    x[18]     c5        661
    x[18]     OBJ       -269
    x[19]     c6        423
    x[19]     c7        393
    x[19]     c8        687
    x[19]     c9        113
    x[19]     c10       76
    x[19]     c1        457
    x[19]     c2        312
    x[19]     c3        485
    x[19]     c4        285
    x[19]     c5        58
    x[19]     OBJ       -277
    x[20]     c6        272
    x[20]     c7        143
    x[20]     c8        98
    x[20]     c9        688
    x[20]     c10       693
    x[20]     c1        816
    x[20]     c2        323
    x[20]     c3        672
    x[20]     c4        422
    x[20]     c5        523
    x[20]     OBJ       65
    x[21]     c6        234
    x[21]     c7        536
    x[21]     c8        585
    x[21]     c9        40
    x[21]     c10       122
    x[21]     c1        357
    x[21]     c2        153
    x[21]     c3        254
    x[21]     c4        802
    x[21]     c5        885
    x[21]     OBJ       131
    x[22]     c6        567
    x[22]     c7        274
    x[22]     c8        241
    x[22]     c9        303
    x[22]     c10       447
    x[22]     c1        495
    x[22]     c2        888
    x[22]     c3        171
    x[22]     c4        200
    x[22]     c5        946
    x[22]     OBJ       -254
    x[23]     c6        168
    x[23]     c7        69
    x[23]     c8        308
    x[23]     c9        568
    x[23]     c10       881
    x[23]     c1        916
    x[23]     c2        287
    x[23]     c3        548
    x[23]     c4        287
    x[23]     c5        125
    x[23]     OBJ       -337
    x[24]     c6        798
    x[24]     c7        87
    x[24]     c8        436
    x[24]     c9        489
    x[24]     c10       847
    x[24]     c1        852
    x[24]     c2        627
    x[24]     c3        202
    x[24]     c4        968
    x[24]     c5        544
    x[24]     OBJ       82
    x[25]     c6        693
    x[25]     c7        693
    x[25]     c8        368
    x[25]     c9        727
    x[25]     c10       971
    x[25]     c1        614
    x[25]     c2        888
    x[25]     c3        227
    x[25]     c4        674
    x[25]     c5        318
    x[25]     OBJ       -244
    x[26]     c6        2
    x[26]     c7        449
    x[26]     c8        773
    x[26]     c9        149
    x[26]     c10       500
    x[26]     c1        161
    x[26]     c2        634
    x[26]     c3        673
    x[26]     c4        379
    x[26]     c5        593
    x[26]     OBJ       173
    x[27]     c6        317
    x[27]     c7        840
    x[27]     c8        523
    x[27]     c9        709
    x[27]     c10       644
    x[27]     c1        60
    x[27]     c2        424
    x[27]     c3        888
    x[27]     c4        733
    x[27]     c5        647
    x[27]     OBJ       -303
    x[28]     c6        576
    x[28]     c7        480
    x[28]     c8        223
    x[28]     c9        510
    x[28]     c10       116
    x[28]     c1        382
    x[28]     c2        365
    x[28]     c3        176
    x[28]     c4        455
    x[28]     c5        299
    x[28]     OBJ       -389
    x[29]     c6        393
    x[29]     c7        662
    x[29]     c8        978
    x[29]     c9        747
    x[29]     c10       679
    x[29]     c1        373
    x[29]     c2        374
    x[29]     c3        82
    x[29]     c4        956
    x[29]     c5        47
    x[29]     OBJ       -549
    x[30]     c6        990
    x[30]     c7        906
    x[30]     c8        141
    x[30]     c9        208
    x[30]     c10       315
    x[30]     c1        570
    x[30]     c2        85
    x[30]     c3        811
    x[30]     c4        967
    x[30]     c5        898
    x[30]     OBJ       30
    x[31]     c6        284
    x[31]     c7        877
    x[31]     c8        47
    x[31]     c9        605
    x[31]     c10       648
    x[31]     c1        182
    x[31]     c2        650
    x[31]     c3        292
    x[31]     c4        829
    x[31]     c5        462
    x[31]     OBJ       -303
    x[32]     c6        235
    x[32]     c7        320
    x[32]     c8        386
    x[32]     c9        55
    x[32]     c10       378
    x[32]     c1        934
    x[32]     c2        265
    x[32]     c3        522
    x[32]     c4        154
    x[32]     c5        502
    x[32]     OBJ       141
    x[33]     c6        602
    x[33]     c7        890
    x[33]     c8        766
    x[33]     c9        549
    x[33]     c10       450
    x[33]     c1        129
    x[33]     c2        711
    x[33]     c3        717
    x[33]     c4        902
    x[33]     c5        572
    x[33]     OBJ       148
    x[34]     c6        374
    x[34]     c7        791
    x[34]     c8        729
    x[34]     c9        411
    x[34]     c10       187
    x[34]     c1        542
    x[34]     c2        204
    x[34]     c3        592
    x[34]     c4        240
    x[34]     c5        556
    x[34]     OBJ       120
    x[35]     c6        471
    x[35]     c7        464
    x[35]     c8        748
    x[35]     c9        131
    x[35]     c10       368
    x[35]     c1        767
    x[35]     c2        816
    x[35]     c3        235
    x[35]     c4        70
    x[35]     c5        361
    x[35]     OBJ       -389
    x[36]     c6        196
    x[36]     c7        316
    x[36]     c8        628
    x[36]     c9        83
    x[36]     c10       427
    x[36]     c1        964
    x[36]     c2        595
    x[36]     c3        398
    x[36]     c4        212
    x[36]     c5        385
    x[36]     OBJ       20
    x[37]     c6        30
    x[37]     c7        78
    x[37]     c8        47
    x[37]     c9        785
    x[37]     c10       225
    x[37]     c1        896
    x[37]     c2        111
    x[37]     c3        519
    x[37]     c4        878
    x[37]     c5        464
    x[37]     OBJ       95
    x[38]     c6        268
    x[38]     c7        800
    x[38]     c8        826
    x[38]     c9        273
    x[38]     c10       57
    x[38]     c1        350
    x[38]     c2        707
    x[38]     c3        987
    x[38]     c4        160
    x[38]     c5        105
    x[38]     OBJ       94
    x[39]     c6        47
    x[39]     c7        576
    x[39]     c8        234
    x[39]     c9        396
    x[39]     c10       458
    x[39]     c1        178
    x[39]     c2        774
    x[39]     c3        937
    x[39]     c4        900
    x[39]     c5        533
    x[39]     OBJ       174
    x[40]     c6        516
    x[40]     c7        728
    x[40]     c8        430
    x[40]     c9        445
    x[40]     c10       274
    x[40]     c1        557
    x[40]     c2        138
    x[40]     c3        12
    x[40]     c4        594
    x[40]     c5        83
    x[40]     OBJ       -277
    x[41]     c6        362
    x[41]     c7        475
    x[41]     c8        123
    x[41]     c9        417
    x[41]     c10       182
    x[41]     c1        975
    x[41]     c2        687
    x[41]     c3        599
    x[41]     c4        582
    x[41]     c5        1
    x[41]     OBJ       -213
    x[42]     c6        963
    x[42]     c7        546
    x[42]     c8        265
    x[42]     c9        365
    x[42]     c10       395
    x[42]     c1        70
    x[42]     c2        131
    x[42]     c3        414
    x[42]     c4        365
    x[42]     c5        112
    x[42]     OBJ       -675
    x[43]     c6        570
    x[43]     c7        845
    x[43]     c8        909
    x[43]     c9        873
    x[43]     c10       396
    x[43]     c1        226
    x[43]     c2        279
    x[43]     c3        362
    x[43]     c4        49
    x[43]     c5        323
    x[43]     OBJ       -796
    x[44]     c6        174
    x[44]     c7        406
    x[44]     c8        143
    x[44]     c9        155
    x[44]     c10       613
    x[44]     c1        356
    x[44]     c2        775
    x[44]     c3        818
    x[44]     c4        368
    x[44]     c5        14
    x[44]     OBJ       -231
    x[45]     c6        226
    x[45]     c7        86
    x[45]     c8        395
    x[45]     c9        879
    x[45]     c10       47
    x[45]     c1        404
    x[45]     c2        191
    x[45]     c3        998
    x[45]     c4        156
    x[45]     c5        581
    x[45]     OBJ       -247
    x[46]     c6        281
    x[46]     c7        580
    x[46]     c8        863
    x[46]     c9        741
    x[46]     c10       337
    x[46]     c1        79
    x[46]     c2        217
    x[46]     c3        654
    x[46]     c4        68
    x[46]     c5        291
    x[46]     OBJ       -787
    x[47]     c6        213
    x[47]     c7        856
    x[47]     c8        154
    x[47]     c9        426
    x[47]     c10       586
    x[47]     c1        833
    x[47]     c2        181
    x[47]     c3        32
    x[47]     c4        99
    x[47]     c5        159
    x[47]     OBJ       -345
    x[48]     c6        297
    x[48]     c7        927
    x[48]     c8        262
    x[48]     c9        742
    x[48]     c10       694
    x[48]     c1        616
    x[48]     c2        750
    x[48]     c3        469
    x[48]     c4        554
    x[48]     c5        108
    x[48]     OBJ       93
    x[49]     c6        699
    x[49]     c7        325
    x[49]     c8        335
    x[49]     c9        755
    x[49]     c10       813
    x[49]     c1        575
    x[49]     c2        890
    x[49]     c3        618
    x[49]     c4        145
    x[49]     c5        702
    x[49]     OBJ       -269
    x[50]     c6        51
    x[50]     c7        655
    x[50]     c8        696
    x[50]     c9        118
    x[50]     c10       340
    x[50]     c1        987
    x[50]     c2        776
    x[50]     c3        781
    x[50]     c4        319
    x[50]     c5        454
    x[50]     OBJ       199
    x[51]     c6        327
    x[51]     c7        85
    x[51]     c8        313
    x[51]     c9        26
    x[51]     c10       51
    x[51]     c1        340
    x[51]     c2        484
    x[51]     c3        944
    x[51]     c4        303
    x[51]     c5        251
    x[51]     OBJ       171
    x[52]     c6        590
    x[52]     c7        690
    x[52]     c8        557
    x[52]     c9        24
    x[52]     c10       41
    x[52]     c1        794
    x[52]     c2        655
    x[52]     c3        499
    x[52]     c4        423
    x[52]     c5        385
    x[52]     OBJ       184
    x[53]     c6        929
    x[53]     c7        95
    x[53]     c8        150
    x[53]     c9        88
    x[53]     c10       981
    x[53]     c1        321
    x[53]     c2        662
    x[53]     c3        860
    x[53]     c4        257
    x[53]     c5        537
    x[53]     OBJ       162
    x[54]     c6        342
    x[54]     c7        4
    x[54]     c8        558
    x[54]     c9        534
    x[54]     c10       699
    x[54]     c1        337
    x[54]     c2        662
    x[54]     c3        216
    x[54]     c4        348
    x[54]     c5        337
    x[54]     OBJ       -253
    x[55]     c6        883
    x[55]     c7        193
    x[55]     c8        898
    x[55]     c9        62
    x[55]     c10       862
    x[55]     c1        580
    x[55]     c2        995
    x[55]     c3        499
    x[55]     c4        915
    x[55]     c5        675
    x[55]     OBJ       100
    x[56]     c6        145
    x[56]     c7        552
    x[56]     c8        82
    x[56]     c9        17
    x[56]     c10       574
    x[56]     c1        920
    x[56]     c2        248
    x[56]     c3        695
    x[56]     c4        905
    x[56]     c5        787
    x[56]     OBJ       204
    x[57]     c6        31
    x[57]     c7        840
    x[57]     c8        984
    x[57]     c9        455
    x[57]     c10       873
    x[57]     c1        425
    x[57]     c2        718
    x[57]     c3        231
    x[57]     c4        684
    x[57]     c5        970
    x[57]     OBJ       125
    x[58]     c6        753
    x[58]     c7        458
    x[58]     c8        246
    x[58]     c9        923
    x[58]     c10       738
    x[58]     c1        170
    x[58]     c2        321
    x[58]     c3        776
    x[58]     c4        562
    x[58]     c5        822
    x[58]     OBJ       -266
    x[59]     c6        947
    x[59]     c7        995
    x[59]     c8        98
    x[59]     c9        293
    x[59]     c10       487
    x[59]     c1        955
    x[59]     c2        533
    x[59]     c3        121
    x[59]     c4        217
    x[59]     c5        528
    x[59]     OBJ       -267
    x[60]     c6        71
    x[60]     c7        491
    x[60]     c8        860
    x[60]     c9        640
    x[60]     c10       12
    x[60]     c1        581
    x[60]     c2        391
    x[60]     c3        703
    x[60]     c4        471
    x[60]     c5        782
    x[60]     OBJ       87
    x[61]     c6        449
    x[61]     c7        7
    x[61]     c8        597
    x[61]     c9        856
    x[61]     c10       556
    x[61]     c1        739
    x[61]     c2        81
    x[61]     c3        876
    x[61]     c4        532
    x[61]     c5        29
    x[61]     OBJ       14
    x[62]     c6        579
    x[62]     c7        518
    x[62]     c8        101
    x[62]     c9        919
    x[62]     c10       689
    x[62]     c1        622
    x[62]     c2        253
    x[62]     c3        260
    x[62]     c4        334
    x[62]     c5        81
    x[62]     OBJ       -615
    x[63]     c6        772
    x[63]     c7        284
    x[63]     c8        762
    x[63]     c9        751
    x[63]     c10       282
    x[63]     c1        473
    x[63]     c2        879
    x[63]     c3        938
    x[63]     c4        601
    x[63]     c5        430
    x[63]     OBJ       121
    x[64]     c6        876
    x[64]     c7        121
    x[64]     c8        607
    x[64]     c9        178
    x[64]     c10       1
    x[64]     c1        789
    x[64]     c2        540
    x[64]     c3        643
    x[64]     c4        729
    x[64]     c5        957
    x[64]     OBJ       276
    x[65]     c6        755
    x[65]     c7        728
    x[65]     c8        530
    x[65]     c9        332
    x[65]     c10       31
    x[65]     c1        946
    x[65]     c2        959
    x[65]     c3        746
    x[65]     c4        566
    x[65]     c5        599
    x[65]     OBJ       106
    x[66]     c6        342
    x[66]     c7        306
    x[66]     c8        657
    x[66]     c9        784
    x[66]     c10       5
    x[66]     c1        499
    x[66]     c2        118
    x[66]     c3        967
    x[66]     c4        886
    x[66]     c5        52
    x[66]     OBJ       -337
    x[67]     c6        30
    x[67]     c7        646
    x[67]     c8        340
    x[67]     c9        749
    x[67]     c10       787
    x[67]     c1        666
    x[67]     c2        989
    x[67]     c3        360
    x[67]     c4        824
    x[67]     c5        314
    x[67]     OBJ       11
    x[68]     c6        809
    x[68]     c7        365
    x[68]     c8        104
    x[68]     c9        51
    x[68]     c10       348
    x[68]     c1        546
    x[68]     c2        781
    x[68]     c3        630
    x[68]     c4        253
    x[68]     c5        180
    x[68]     OBJ       -313
    x[69]     c6        24
    x[69]     c7        632
    x[69]     c8        943
    x[69]     c9        875
    x[69]     c10       286
    x[69]     c1        630
    x[69]     c2        678
    x[69]     c3        46
    x[69]     c4        606
    x[69]     c5        877
    x[69]     OBJ       154
    x[70]     c6        336
    x[70]     c7        937
    x[70]     c8        783
    x[70]     c9        417
    x[70]     c10       361
    x[70]     c1        997
    x[70]     c2        787
    x[70]     c3        555
    x[70]     c4        618
    x[70]     c5        28
    x[70]     OBJ       -354
    x[71]     c6        217
    x[71]     c7        558
    x[71]     c8        621
    x[71]     c9        196
    x[71]     c10       123
    x[71]     c1        462
    x[71]     c2        424
    x[71]     c3        818
    x[71]     c4        418
    x[71]     c5        115
    x[71]     OBJ       176
    x[72]     c6        568
    x[72]     c7        48
    x[72]     c8        688
    x[72]     c9        727
    x[72]     c10       39
    x[72]     c1        750
    x[72]     c2        721
    x[72]     c3        52
    x[72]     c4        217
    x[72]     c5        483
    x[72]     OBJ       138
    x[73]     c6        299
    x[73]     c7        229
    x[73]     c8        721
    x[73]     c9        950
    x[73]     c10       490
    x[73]     c1        841
    x[73]     c2        623
    x[73]     c3        6
    x[73]     c4        153
    x[73]     c5        451
    x[73]     OBJ       -277
    x[74]     c6        157
    x[74]     c7        303
    x[74]     c8        384
    x[74]     c9        483
    x[74]     c10       138
    x[74]     c1        795
    x[74]     c2        833
    x[74]     c3        331
    x[74]     c4        725
    x[74]     c5        434
    x[74]     OBJ       89
    x[75]     c6        846
    x[75]     c7        666
    x[75]     c8        233
    x[75]     c9        809
    x[75]     c10       892
    x[75]     c1        2
    x[75]     c2        986
    x[75]     c3        24
    x[75]     c4        701
    x[75]     c5        494
    x[75]     OBJ       -510
    x[76]     c6        183
    x[76]     c7        873
    x[76]     c8        689
    x[76]     c9        232
    x[76]     c10       829
    x[76]     c1        522
    x[76]     c2        141
    x[76]     c3        328
    x[76]     c4        451
    x[76]     c5        849
    x[76]     OBJ       -460
    x[77]     c6        654
    x[77]     c7        881
    x[77]     c8        296
    x[77]     c9        101
    x[77]     c10       933
    x[77]     c1        778
    x[77]     c2        66
    x[77]     c3        749
    x[77]     c4        402
    x[77]     c5        212
    x[77]     OBJ       -431
    x[78]     c6        223
    x[78]     c7        411
    x[78]     c8        339
    x[78]     c9        745
    x[78]     c10       141
    x[78]     c1        42
    x[78]     c2        983
    x[78]     c3        206
    x[78]     c4        372
    x[78]     c5        520
    x[78]     OBJ       99
    x[79]     c6        10
    x[79]     c7        272
    x[79]     c8        209
    x[79]     c9        507
    x[79]     c10       758
    x[79]     c1        714
    x[79]     c2        449
    x[79]     c3        906
    x[79]     c4        820
    x[79]     c5        178
    x[79]     OBJ       3
    x[80]     c6        870
    x[80]     c7        466
    x[80]     c8        122
    x[80]     c9        261
    x[80]     c10       679
    x[80]     c1        645
    x[80]     c2        654
    x[80]     c3        346
    x[80]     c4        111
    x[80]     c5        354
    x[80]     OBJ       1
    x[81]     c6        835
    x[81]     c7        330
    x[81]     c8        599
    x[81]     c9        814
    x[81]     c10       47
    x[81]     c1        855
    x[81]     c2        458
    x[81]     c3        104
    x[81]     c4        770
    x[81]     c5        251
    x[81]     OBJ       78
    x[82]     c6        808
    x[82]     c7        665
    x[82]     c8        624
    x[82]     c9        757
    x[82]     c10       98
    x[82]     c1        396
    x[82]     c2        675
    x[82]     c3        415
    x[82]     c4        205
    x[82]     c5        72
    x[82]     OBJ       -312
    x[83]     c6        508
    x[83]     c7        60
    x[83]     c8        861
    x[83]     c9        652
    x[83]     c10       729
    x[83]     c1        768
    x[83]     c2        515
    x[83]     c3        680
    x[83]     c4        698
    x[83]     c5        770
    x[83]     OBJ       166
    x[84]     c6        977
    x[84]     c7        782
    x[84]     c8        866
    x[84]     c9        727
    x[84]     c10       982
    x[84]     c1        392
    x[84]     c2        718
    x[84]     c3        187
    x[84]     c4        976
    x[84]     c5        806
    x[84]     OBJ       -391
    x[85]     c6        309
    x[85]     c7        450
    x[85]     c8        543
    x[85]     c9        658
    x[85]     c10       675
    x[85]     c1        141
    x[85]     c2        486
    x[85]     c3        220
    x[85]     c4        370
    x[85]     c5        580
    x[85]     OBJ       -635
    x[86]     c6        997
    x[86]     c7        769
    x[86]     c8        810
    x[86]     c9        902
    x[86]     c10       749
    x[86]     c1        544
    x[86]     c2        881
    x[86]     c3        255
    x[86]     c4        449
    x[86]     c5        97
    x[86]     OBJ       -830
    x[87]     c6        920
    x[87]     c7        583
    x[87]     c8        769
    x[87]     c9        421
    x[87]     c10       42
    x[87]     c1        847
    x[87]     c2        726
    x[87]     c3        122
    x[87]     c4        378
    x[87]     c5        80
    x[87]     OBJ       9
    x[88]     c6        892
    x[88]     c7        427
    x[88]     c8        846
    x[88]     c9        731
    x[88]     c10       168
    x[88]     c1        263
    x[88]     c2        386
    x[88]     c3        51
    x[88]     c4        633
    x[88]     c5        821
    x[88]     OBJ       -603
    x[89]     c6        749
    x[89]     c7        799
    x[89]     c8        955
    x[89]     c9        1000
    x[89]     c10       600
    x[89]     c1        325
    x[89]     c2        796
    x[89]     c3        231
    x[89]     c4        566
    x[89]     c5        379
    x[89]     OBJ       -700
    x[90]     c6        355
    x[90]     c7        266
    x[90]     c8        642
    x[90]     c9        303
    x[90]     c10       192
    x[90]     c1        227
    x[90]     c2        229
    x[90]     c3        536
    x[90]     c4        240
    x[90]     c5        635
    x[90]     OBJ       -458
    x[91]     c6        819
    x[91]     c7        319
    x[91]     c8        561
    x[91]     c9        68
    x[91]     c10       337
    x[91]     c1        765
    x[91]     c2        398
    x[91]     c3        897
    x[91]     c4        13
    x[91]     c5        508
    x[91]     OBJ       44
    x[92]     c6        186
    x[92]     c7        100
    x[92]     c8        922
    x[92]     c9        53
    x[92]     c10       163
    x[92]     c1        128
    x[92]     c2        335
    x[92]     c3        727
    x[92]     c4        689
    x[92]     c5        988
    x[92]     OBJ       286
    x[93]     c6        46
    x[93]     c7        362
    x[93]     c8        994
    x[93]     c9        501
    x[93]     c10       264
    x[93]     c1        10
    x[93]     c2        624
    x[93]     c3        782
    x[93]     c4        385
    x[93]     c5        748
    x[93]     OBJ       14
    x[94]     c6        591
    x[94]     c7        213
    x[94]     c8        931
    x[94]     c9        782
    x[94]     c10       793
    x[94]     c1        973
    x[94]     c2        283
    x[94]     c3        113
    x[94]     c4        319
    x[94]     c5        542
    x[94]     OBJ       -692
    x[95]     c6        102
    x[95]     c7        307
    x[95]     c8        908
    x[95]     c9        718
    x[95]     c10       536
    x[95]     c1        162
    x[95]     c2        182
    x[95]     c3        947
    x[95]     c4        341
    x[95]     c5        41
    x[95]     OBJ       -614
    x[96]     c6        859
    x[96]     c7        468
    x[96]     c8        329
    x[96]     c9        979
    x[96]     c10       843
    x[96]     c1        743
    x[96]     c2        589
    x[96]     c3        206
    x[96]     c4        863
    x[96]     c5        451
    x[96]     OBJ       -491
    x[97]     c6        935
    x[97]     c7        352
    x[97]     c8        366
    x[97]     c9        530
    x[97]     c10       715
    x[97]     c1        208
    x[97]     c2        153
    x[97]     c3        566
    x[97]     c4        462
    x[97]     c5        87
    x[97]     OBJ       -518
    x[98]     c6        855
    x[98]     c7        873
    x[98]     c8        513
    x[98]     c9        824
    x[98]     c10       964
    x[98]     c1        223
    x[98]     c2        945
    x[98]     c3        738
    x[98]     c4        630
    x[98]     c5        107
    x[98]     OBJ       -649
    x[99]     c6        334
    x[99]     c7        355
    x[99]     c8        274
    x[99]     c9        692
    x[99]     c10       651
    x[99]     c1        981
    x[99]     c2        272
    x[99]     c3        733
    x[99]     c4        91
    x[99]     c5        658
    x[99]     OBJ       161
    x[100]    c6        968
    x[100]    c7        89
    x[100]    c8        868
    x[100]    c9        926
    x[100]    c10       619
    x[100]    c1        143
    x[100]    c2        849
    x[100]    c3        891
    x[100]    c4        525
    x[100]    c5        636
    x[100]    OBJ       98
RHS
    rhs       c6        24045
    rhs       c7        24345
    rhs       c8        26096
    rhs       c9        25634
    rhs       c10       24302
    rhs       c1        2632
    rhs       c2        2677
    rhs       c3        2486
    rhs       c4        2461
    rhs       c5        2189
RANGES
BOUNDS
 LO bounds    ss[1]     0
 PL bounds    ss[1]
 LO bounds    ss[2]     0
 PL bounds    ss[2]
 LO bounds    ss[3]     0
 PL bounds    ss[3]
 LO bounds    ss[4]     0
 PL bounds    ss[4]
 LO bounds    ss[5]     0
 PL bounds    ss[5]
 MI bounds    s[1]
 UP bounds    s[1]      0
 MI bounds    s[2]
 UP bounds    s[2]      0
 MI bounds    s[3]
 UP bounds    s[3]      0
 MI bounds    s[4]
 UP bounds    s[4]      0
 MI bounds    s[5]
 UP bounds    s[5]      0
 BV bounds    x[1]
 BV bounds    x[2]
 BV bounds    x[3]
 BV bounds    x[4]
 BV bounds    x[5]
 BV bounds    x[6]
 BV bounds    x[7]
 BV bounds    x[8]
 BV bounds    x[9]
 BV bounds    x[10]
 BV bounds    x[11]
 BV bounds    x[12]
 BV bounds    x[13]
 BV bounds    x[14]
 BV bounds    x[15]
 BV bounds    x[16]
 BV bounds    x[17]
 BV bounds    x[18]
 BV bounds    x[19]
 BV bounds    x[20]
 BV bounds    x[21]
 BV bounds    x[22]
 BV bounds    x[23]
 BV bounds    x[24]
 BV bounds    x[25]
 BV bounds    x[26]
 BV bounds    x[27]
 BV bounds    x[28]
 BV bounds    x[29]
 BV bounds    x[30]
 BV bounds    x[31]
 BV bounds    x[32]
 BV bounds    x[33]
 BV bounds    x[34]
 BV bounds    x[35]
 BV bounds    x[36]
 BV bounds    x[37]
 BV bounds    x[38]
 BV bounds    x[39]
 BV bounds    x[40]
 BV bounds    x[41]
 BV bounds    x[42]
 BV bounds    x[43]
 BV bounds    x[44]
 BV bounds    x[45]
 BV bounds    x[46]
 BV bounds    x[47]
 BV bounds    x[48]
 BV bounds    x[49]
 BV bounds    x[50]
 BV bounds    x[51]
 BV bounds    x[52]
 BV bounds    x[53]
 BV bounds    x[54]
 BV bounds    x[55]
 BV bounds    x[56]
 BV bounds    x[57]
 BV bounds    x[58]
 BV bounds    x[59]
 BV bounds    x[60]
 BV bounds    x[61]
 BV bounds    x[62]
 BV bounds    x[63]
 BV bounds    x[64]
 BV bounds    x[65]
 BV bounds    x[66]
 BV bounds    x[67]
 BV bounds    x[68]
 BV bounds    x[69]
 BV bounds    x[70]
 BV bounds    x[71]
 BV bounds    x[72]
 BV bounds    x[73]
 BV bounds    x[74]
 BV bounds    x[75]
 BV bounds    x[76]
 BV bounds    x[77]
 BV bounds    x[78]
 BV bounds    x[79]
 BV bounds    x[80]
 BV bounds    x[81]
 BV bounds    x[82]
 BV bounds    x[83]
 BV bounds    x[84]
 BV bounds    x[85]
 BV bounds    x[86]
 BV bounds    x[87]
 BV bounds    x[88]
 BV bounds    x[89]
 BV bounds    x[90]
 BV bounds    x[91]
 BV bounds    x[92]
 BV bounds    x[93]
 BV bounds    x[94]
 BV bounds    x[95]
 BV bounds    x[96]
 BV bounds    x[97]
 BV bounds    x[98]
 BV bounds    x[99]
 BV bounds    x[100]
ENDATA
